NAME : 1.82830.tour
COMMENT : Length = 82830
COMMENT : Found by LKH-3 [Keld Helsgaun] Thu Jun 19 18:15:53 2025
TYPE : TOUR
DIMENSION : 100
TOUR_SECTION
1
11
70
94
14
52
88
53
9
30
15
99
87
78
84
32
80
50
98
96
65
59
86
22
16
51
91
39
58
76
3
77
13
57
45
27
81
61
71
44
25
79
35
66
2
6
37
97
23
62
85
34
69
74
21
54
10
83
4
36
7
26
56
64
90
19
82
75
92
43
68
48
17
67
31
38
72
73
33
24
5
60
29
93
42
55
18
20
47
95
28
89
12
49
40
100
41
46
8
63
-1
EOF
